%NProcShared=40
%chk=ABH.chk
#p opt rb3lyp/6-31g(d,p) scrf=(iefpcm,solvent=acetonitrile)
empiricaldispersion=gd3

Title Card Required

0 1
 C                  1.20045000    0.34166900   -0.37441500
 H                  1.20814900   -1.91450000    1.30739600
 O                  1.77329400   -0.60063800   -1.19153700
 N                  1.80669400   -0.09039300    1.09473300
 H                  2.67768600    0.42969700    1.21849100
 N                  2.12368500   -1.48211500    1.13277200
 H                  2.04391900   -1.29479000   -0.52451800
 H                  1.15521200    0.24095900    1.81375700
 C                  1.69740000    1.74480600   -0.68532400
 H                  1.25580200    2.09542200   -1.62156100
 H                  1.44361100    2.46054900    0.10138600
 H                  2.78391900    1.71955200   -0.80416900
 C                 -0.30589500    0.19384600   -0.23118900
 C                 -0.92347900   -0.98925100   -0.65703700
 C                 -1.08650700    1.17751900    0.39647200
 C                 -2.29283200   -1.18388200   -0.46819900
 H                 -0.32191200   -1.74298100   -1.15127500
 C                 -2.45557300    0.98305400    0.58417800
 H                 -0.63384700    2.10182300    0.74137300
 C                 -3.06325000   -0.19865200    0.15256400
 H                 -2.75759900   -2.10478600   -0.80811200
 H                 -3.04697100    1.75555700    1.06661100
 H                 -4.12886200   -0.34849600    0.29807900

