%NProcShared=32
%chk=Step01-opt-singlet.chk
#p opt ub3lyp/6-31g(d,p) scrf=(iefpcm,solvent=acetonitrile)
guess=(core,mix,local) empiricaldispersion=gd3

Title Card Required

0 1
 C                  4.00225447    0.61370318    0.04017535
 H                  0.39585842    2.81147230    1.29368500
 C                 -4.00135677    0.61283936   -0.04561981
 O                 -2.94332727    0.19209670   -0.40808717
 O                  2.94453315    0.19888789    0.41028570
 N                 -0.60536449    2.55031936   -0.38044305
 H                 -0.39390054    2.79168752   -1.32630565
 N                  0.60758028    2.55630922    0.35150908
 H                  1.04946982    1.65735918    0.36321995
 H                 -1.04640256    1.65087808   -0.37885914
 C                  4.18664254    2.04063259   -0.42273189
 H                  4.95677112    2.52730742    0.16938812
 H                  4.52494591    2.05168292   -1.45543335
 H                  3.25739809    2.58569167   -0.33661393
 C                 -4.18504875    2.04578741    0.39858784
 H                 -4.95523143    2.52511058   -0.19940687
 H                 -4.52289408    2.07027484    1.43122272
 H                 -3.25557824    2.58926295    0.30519874
 C                  5.24760613   -0.29183669    0.01377273
 C                  6.03673245   -0.42613574    1.15645167
 C                  5.58660370   -0.97783268   -1.15243420
 C                  7.16496417   -1.24573809    1.13263754
 H                  5.76963817    0.11542670    2.07547982
 C                  6.71459200   -1.79849770   -1.17612819
 H                  4.96465969   -0.87223778   -2.05308096
 C                  7.50384335   -1.93244128   -0.03390284
 H                  7.78736414   -1.35115172    2.03308351
 H                  6.98139994   -2.33957549   -2.09565131
 H                  8.39342693   -2.57865685   -0.05242317
 C                 -5.24780582   -0.29088078   -0.01019348
 C                 -6.01320534   -0.46902267   -1.16297306
 C                 -5.61151615   -0.93140048    1.17428857
 C                 -7.14242842   -1.28698105   -1.13101362
 H                 -5.72663532    0.03670152   -2.09644112
 C                 -6.74049427   -1.75042543    1.20617395
 H                 -5.00827355   -0.79124896    2.08290571
 C                 -7.50602790   -1.92819461    0.05383126
 H                 -7.74613086   -1.42694367   -2.03944663
 H                 -7.02678784   -2.25564628    2.14012378
 H                 -8.39638773   -2.57312386    0.07877338

