%NProcShared=40
%chk=AABH.chk
#p opt ub3lyp/6-31g(d,p) scrf=(iefpcm,solvent=acetonitrile)
guess=(mix,always) empiricaldispersion=gd3

Title Card Required

0 1
 C                  1.07772200   -1.31316800   -0.72716500
 H                  4.19656400   -0.37165800    1.23864200
 C                  1.01860100    1.29173800    0.78827600
 O                  1.93220200    1.82667600    0.06948300
 O                  1.97623800   -1.83483200    0.11610300
 N                  4.03737500    0.72135200   -0.31225700
 H                  4.09153700    0.62556000   -1.32893500
 N                  4.25914800   -0.50504700    0.22054200
 H                  2.89299200   -1.45553800   -0.00918900
 H                  2.95099300    1.37672400    0.02809000
 C                  1.55815900   -0.63958300   -1.97766100
 H                  0.91229900   -0.87477200   -2.82680800
 H                  1.58767200    0.45244900   -1.87461400
 H                  2.56773100   -0.98053200   -2.21829700
 C                  1.37918800    0.52558400    2.02618800
 H                  1.04417600    1.08525500    2.90702100
 H                  0.89023800   -0.45146700    2.04548200
 H                  2.45585500    0.38465400    2.09253600
 C                 -0.29756800   -1.59308500   -0.45154400
 C                 -0.66693700   -2.32173300    0.71290700
 C                 -1.34042400   -1.13696300   -1.30251000
 C                 -2.00112600   -2.58856900    0.99318800
 H                  0.11192300   -2.68541100    1.37313500
 C                 -2.66859100   -1.41201800   -1.00979500
 H                 -1.10576700   -0.54683500   -2.18044000
 C                 -3.01341400   -2.14320300    0.13404900
 H                 -2.25685900   -3.15208400    1.88612000
 H                 -3.44642400   -1.04397800   -1.67211300
 H                 -4.05471500   -2.35382100    0.35697300
 C                 -0.37015100    1.57041200    0.45502600
 C                 -0.67819600    2.28953900   -0.72061400
 C                 -1.42612600    1.13347500    1.28245600
 C                 -1.99889000    2.56925600   -1.04905700
 H                  0.13142000    2.62375900   -1.35904300
 C                 -2.74467700    1.42341700    0.94994700
 H                 -1.21976200    0.56257700    2.17940400
 C                 -3.03646900    2.14333800   -0.21176100
 H                 -2.22378300    3.12233900   -1.95567400
 H                 -3.54817900    1.07807400    1.59214800
 H                 -4.06768000    2.36518800   -0.46869700

