#p opt freq ub3lyp/6-31g(d,p) scrf=(iefpcm,solvent=acetonitrile)
empiricaldispersion=gd3

Title Card Required

0 3
 C                 -0.06092100   -1.87351200    0.64591700
 O                 -0.68654400   -2.51633800   -0.19388900
 C                 -0.59004900   -1.74530900    2.05864400
 H                  0.12901600   -2.14462100    2.78129600
 H                 -0.75885000   -0.69332200    2.30680700
 H                 -1.53158400   -2.28870900    2.13460200
 C                  1.22381100   -1.19956600    0.28791800
 C                  1.72563600   -1.36192000   -1.01417300
 C                  1.92686700   -0.39485700    1.19652400
 C                  2.90393900   -0.73273700   -1.40071100
 H                  1.16987600   -1.98250600   -1.70864100
 C                  3.10692700    0.23909500    0.80759100
 H                  1.55394800   -0.24762900    2.20363800
 C                  3.59662600    0.07184500   -0.48896200
 H                  3.28387000   -0.86303700   -2.40944100
 H                  3.64044800    0.86639400    1.51483200
 H                  4.51470800    0.56743000   -0.79032600
 H                 -0.21537321   -3.02473136   -0.85806840
 N                  1.98431142   -5.30775749    0.12699144
 H                  2.31763331   -6.25057057    0.12699144
 H                  2.31765052   -4.83635731    0.94348818
 N                  2.45098616   -4.64779724   -1.01610398
 H                  2.11914057   -5.12025258   -1.83259921

