#p opt=modredundant ub3lyp/6-31g(d,p) scrf=(iefpcm,solvent=acetonitrile)
empiricaldispersion=gd3

Title Card Required

0 2
 C                  0.16844800   -1.99453100    0.91423500
 C                 -2.07700100   -0.47846600   -0.86298000
 O                 -3.01924800   -1.09996500   -0.09112900
 O                 -0.10915000   -3.00526100    0.27225100
 C                 -0.61361300   -1.64013000    2.16264000
 H                  0.02168200   -1.73923600    3.04973400
 H                 -0.96242600   -0.60337600    2.12852100
 H                 -1.46344600   -2.31694800    2.25196700
 C                 -1.72962500   -1.29401200   -2.06246800
 H                 -1.30755400   -0.68888200   -2.86576900
 H                 -1.00956400   -2.08142200   -1.80064900
 H                 -2.63061400   -1.78819400   -2.44067100
 C                  1.28495100   -1.09967900    0.48538800
 C                  1.93047600   -1.36941800   -0.73277700
 C                  1.69908100    0.00253100    1.24826600
 C                  2.96152000   -0.55071700   -1.18270400
 H                  1.60344800   -2.22510500   -1.31336900
 C                  2.73882300    0.81683800    0.80210500
 H                  1.20982000    0.23667500    2.18687000
 C                  3.36929300    0.54454000   -0.41350900
 H                  3.44969600   -0.76292700   -2.12910700
 H                  3.04919600    1.66952200    1.39774500
 H                  4.17403100    1.18442800   -0.76316200
 C                 -1.51111700    0.76929400   -0.49833300
 C                 -1.98302700    1.51362500    0.62680200
 C                 -0.42109900    1.33262900   -1.22996400
 C                 -1.39496300    2.71682900    0.99394300
 H                 -2.84084400    1.16923400    1.19868000
 C                  0.15101200    2.53562700   -0.85229700
 H                 -0.00227500    0.79131000   -2.06977500
 C                 -0.32287100    3.24379500    0.26290700
 H                 -1.78289200    3.25622700    1.85360600
 H                  0.99104900    2.92298600   -1.42136800
 H                  0.13469600    4.18331200    0.55566900
 H                 -3.10855700   -0.65831400    0.76457000

B 1 2 S 20 -0.100000

