%NProcShared=40
%chk=AABH-irc-end-opt-reac.chk
#p opt ub3lyp/6-31g(d,p) scrf=(iefpcm,solvent=acetonitrile)
guess=(mix,always) empiricaldispersion=gd3

Title Card Required

0 1
 C                  0.15729700   -0.89354300    1.40571900
 H                 -3.54237300   -1.91353400   -1.84867600
 C                 -1.23387300    0.39062800   -0.39213600
 O                 -2.20823000    0.30362700    0.38602800
 O                 -0.85776500   -1.79845800    1.46051100
 N                 -4.26445700   -1.45393600   -0.15643400
 H                 -5.12184200   -1.32929600    0.36586400
 N                 -4.43989000   -2.03727000   -1.36437300
 H                 -1.69778700   -1.30708800    1.52834800
 H                 -3.53425100   -0.75492400    0.00009600
 C                  0.10329900    0.22930800    2.39180100
 H                  0.75683700    1.05834600    2.12414900
 H                 -0.91738500    0.61524100    2.46570400
 H                  0.39848300   -0.13580600    3.38463800
 C                 -1.02559700   -0.66939000   -1.44784500
 H                 -1.65119100   -0.40981700   -2.31042400
 H                  0.00340600   -0.75492800   -1.79234100
 H                 -1.34696300   -1.63338900   -1.05171000
 C                  1.31075600   -1.28290300    0.66385300
 C                  1.34840900   -2.54126500    0.00215100
 C                  2.45548000   -0.44718600    0.56975800
 C                  2.49219600   -2.95850700   -0.66203700
 H                  0.47758400   -3.18370200    0.04911700
 C                  3.58872300   -0.87293600   -0.10975600
 H                  2.45317800    0.53082400    1.03535500
 C                  3.62539600   -2.13536000   -0.71539500
 H                  2.50833900   -3.93401500   -1.13950200
 H                  4.45537400   -0.22055700   -0.16300500
 H                  4.52140300   -2.46975600   -1.22886900
 C                 -0.43325500    1.63073900   -0.38869400
 C                 -0.93372000    2.71640900    0.35455600
 C                  0.75709800    1.78738000   -1.11761700
 C                 -0.28303700    3.94225200    0.33866400
 H                 -1.85100800    2.58023800    0.91468800
 C                  1.41327900    3.01684000   -1.12303700
 H                  1.17598800    0.95886900   -1.67511600
 C                  0.88948200    4.09748400   -0.40884600
 H                 -0.68833800    4.77973800    0.89805000
 H                  2.33120700    3.13407200   -1.69041500
 H                  1.39563700    5.05784100   -0.43155700

