%NProcShared=40
%chk=AABH-2.chk
#p opt=(calcfc,ts,noeigentest) ub3lyp/6-31g(d,p)
scrf=(iefpcm,solvent=acetonitrile) guess=(mix,always)
empiricaldispersion=gd3

Title Card Required

0 1
 C                 -0.29723700   -0.73241300   -1.26686500
 H                  3.17772100   -2.22962200    2.00826000
 C                  1.15374400   -0.04119800    0.18731300
 O                  2.22676100   -0.35159200   -0.49494000
 O                  0.33873200   -1.92155300   -1.55115400
 N                  3.67902900   -2.34760500    0.21905500
 H                  4.30787700   -2.77712100   -0.45722800
 N                  3.84689800   -2.75654600    1.42952700
 H                  1.29184000   -1.68488800   -1.54809100
 H                  3.05788600   -1.49389900   -0.08632500
 C                 -0.12322200    0.30471000   -2.35085400
 H                 -0.52772100    1.27862300   -2.07541600
 H                  0.94264600    0.42905800   -2.55986600
 H                 -0.62028500   -0.03729200   -3.26718400
 C                  0.81703400   -0.95388600    1.35369700
 H                  1.55456700   -0.79527900    2.15055000
 H                 -0.17213100   -0.78122200    1.77614400
 H                  0.86454500   -1.99271400    1.01893900
 C                 -1.58719100   -0.90420300   -0.60108300
 C                 -1.93378600   -2.14786200   -0.02174300
 C                 -2.50548900    0.16127000   -0.47391400
 C                 -3.13656400   -2.31078300    0.65770500
 H                 -1.24519100   -2.97866200   -0.11908600
 C                 -3.70538500   -0.00685500    0.21227100
 H                 -2.27486900    1.12882300   -0.90254200
 C                 -4.02970200   -1.24096400    0.78357100
 H                 -3.38084800   -3.27614100    1.09172400
 H                 -4.39247800    0.82975600    0.29921500
 H                 -4.96735900   -1.36897800    1.31595200
 C                  0.82564700    1.40752800    0.30659100
 C                  1.60687500    2.34757900   -0.39401800
 C                 -0.25018100    1.88061600    1.07866900
 C                  1.31529300    3.70790100   -0.33413800
 H                  2.44456200    1.98523000   -0.97901400
 C                 -0.54288400    3.24293500    1.13521600
 H                 -0.87450800    1.18619400    1.62718400
 C                  0.23510200    4.16342600    0.42861000
 H                  1.93232200    4.41620600   -0.87999000
 H                 -1.38217200    3.58544700    1.73355000
 H                  0.00583900    5.22388500    0.47572400

