%NProcShared=32
%chk=AABH.chk
#p opt=modredundant ub3lyp/6-31g(d,p) scrf=(iefpcm,solvent=acetonitrile)
guess=(mix,always) empiricaldispersion=gd3

Title Card Required

0 1
 C                  0.35411400   -1.47934600   -0.30051500
 H                  4.61795500   -1.28288000    1.29795200
 C                  1.78981900    1.48590900    0.31363300
 O                  2.51671600    1.44693100   -0.67869500
 O                  1.08712900   -1.59188200    0.68293200
 N                  4.64178300   -0.83236900   -0.64050500
 H                  4.54286100   -1.38337600   -1.48998900
 N                  4.21667100   -1.68404100    0.45355500
 H                  3.20104800   -1.64080500    0.56769700
 H                  4.01527800   -0.02954100   -0.73576300
 C                  0.94430600   -1.34417300   -1.68607000
 H                  0.59720400   -2.15578500   -2.33347800
 H                  0.62940000   -0.40013600   -2.13989600
 H                  2.03174600   -1.35932600   -1.62102300
 C                  2.34490800    1.20315300    1.69128200
 H                  2.13298600    2.02995000    2.37626000
 H                  1.87840100    0.30022800    2.09564900
 H                  3.42155300    1.04879100    1.61974700
 C                 -1.12800900   -1.46677500   -0.13368400
 C                 -1.66139600   -1.66531500    1.15112300
 C                 -2.00009600   -1.24363800   -1.21009300
 C                 -3.03654700   -1.64466900    1.35541900
 H                 -0.97739400   -1.82966300    1.97634900
 C                 -3.37905500   -1.21728500   -1.00339700
 H                 -1.61094600   -1.07923100   -2.20835400
 C                 -3.89864800   -1.41841900    0.27677700
 H                 -3.43992800   -1.79985100    2.35132600
 H                 -4.04632800   -1.03695100   -1.84028800
 H                 -4.97270600   -1.39757700    0.43546800
 C                  0.33599300    1.78975700    0.16352500
 C                 -0.15176000    2.12609300   -1.11131300
 C                 -0.56194300    1.70332300    1.23850300
 C                 -1.50792100    2.36059600   -1.30883600
 H                  0.55163400    2.19247100   -1.93418800
 C                 -1.92238100    1.93297300    1.03812200
 H                 -0.21016600    1.43468900    2.22808800
 C                 -2.39718900    2.25786600   -0.23353000
 H                 -1.87664700    2.61484900   -2.29769400
 H                 -2.61266300    1.84278000    1.87033600
 H                 -3.45840500    2.42554400   -0.38912200

B 1 3 S 8 -0.220000
B 10 4 S 5 -0.220000
B 9 5 S 5 -0.220000

