#p opt ub3lyp/6-31g(d,p) scrf=(iefpcm,solvent=acetonitrile)
empiricaldispersion=gd3

Title Card Required

0 2
 N                 -1.04757767   -1.92697057    2.65285236
 H                 -0.71425577   -2.86978366    2.65285236
 H                 -0.71423856   -1.45557039    1.83635563
 N                 -0.58090292   -1.26701032    3.79594779
 H                 -0.91273128   -0.32367098    3.79503422

