%NProcShared=40
%chk=AABH.chk
#p opt ub3lyp/6-31g(d,p) scrf=(iefpcm,solvent=acetonitrile)
guess=(mix,always) empiricaldispersion=gd3

Title Card Required

0 1
 C                  1.06434100   -1.41762500   -0.65517700
 H                  4.13465400   -0.35805500    1.30057600
 C                  1.06477200    1.41046400    0.67727500
 O                  1.93104500    1.86872000   -0.18380000
 O                  1.92152700   -1.87367600    0.24446200
 N                  4.09503700    0.60762800   -0.34443000
 H                  4.11958300    0.37891200   -1.34533200
 N                  4.15329600   -0.58788500    0.29849400
 H                  2.84161300   -1.49887900    0.13058100
 H                  2.85206800    1.47500200   -0.10816800
 C                  1.58848900   -0.81970700   -1.92470400
 H                  0.96088100   -1.08913700   -2.77647800
 H                  1.62844800    0.27554400   -1.87213500
 H                  2.60011400   -1.18281100   -2.11653500
 C                  1.55227000    0.78105600    1.94454500
 H                  0.97503900    1.13542700    2.80164100
 H                  1.45605200   -0.31074400    1.90336400
 H                  2.60168700    1.02650600    2.11016100
 C                 -0.33004800   -1.62315400   -0.39022600
 C                 -0.74672000   -2.24131300    0.81856300
 C                 -1.33112100   -1.19935800   -1.30167300
 C                 -2.09398600   -2.45363700    1.07895000
 H                  0.00521000   -2.56102700    1.53060000
 C                 -2.67551800   -1.41586400   -1.02750600
 H                 -1.05497500   -0.68615000   -2.21501100
 C                 -3.06785900   -2.05169500    0.15536400
 H                 -2.39140900   -2.93474500    2.00593200
 H                 -3.42514400   -1.07748700   -1.73598900
 H                 -4.11984000   -2.22174800    0.36185800
 C                 -0.32501400    1.62082800    0.39100300
 C                 -0.72127900    2.24833900   -0.81750000
 C                 -1.33382700    1.19814500    1.29247000
 C                 -2.06370800    2.47006500   -1.09030400
 H                  0.03975700    2.56420700   -1.52128500
 C                 -2.67321900    1.42357000    1.00616600
 H                 -1.06847900    0.68388100    2.20787600
 C                 -3.04699300    2.06827300   -0.17737600
 H                 -2.34939300    2.95885900   -2.01672500
 H                 -3.43231600    1.08802500    1.70526500
 H                 -4.09592500    2.24554000   -0.39315400

