%NProcShared=32
%chk=AH-Opt-State-05.chk
#p opt td=(50-50,nstates=12,root=05) ub3lyp/6-31g(d,p)
scrf=(iefpcm,solvent=acetonitrile) guess=(core,mix,always)
empiricaldispersion=gd3

Title Card Required

0 1
 C                 -1.69730800   -0.20140200   -0.00001800
 O                 -2.21790500   -1.31223900   -0.00002900
 C                 -2.55327400    1.04945200   -0.00002400
 H                 -2.34331800    1.66351800    0.88201100
 H                 -2.34286800    1.66395600   -0.88162600
 H                 -3.60461600    0.76106000   -0.00040100
 C                 -0.20696700   -0.05671000    0.00005700
 C                  0.57802200   -1.22202500    0.00004900
 C                  0.42835100    1.19547200    0.00007500
 C                  1.96697000   -1.13917300   -0.00000300
 H                  0.07595300   -2.18349100    0.00000400
 C                  1.82097900    1.27801900   -0.00000200
 H                 -0.15523600    2.10952300   -0.00003900
 C                  2.59142000    0.11289600   -0.00002900
 H                  2.56501000   -2.04534600   -0.00008100
 H                  2.30385400    2.25026400   -0.00014100
 H                  3.67530400    0.17925200   -0.00012500

