%NProcShared=40
%chk=AABH_2.chk
#p opt=modredundant ub3lyp/6-31g(d,p) scrf=(iefpcm,solvent=acetonitrile)
guess=(mix,always) empiricaldispersion=gd3

Title Card Required

0 1
 C                  0.81638000   -1.59079200   -0.68473800
 H                  4.08657100   -0.58920600    1.19458700
 C                  1.28565300    1.54158800    0.76318000
 O                  2.18494700    1.93529700    0.01315200
 O                  1.67407200   -2.07781000    0.25005300
 N                  4.34275300    0.11513600   -0.55387800
 H                  4.23307000   -0.09112600   -1.54002800
 N                  4.12930400   -0.95397100    0.23787900
 H                  2.61655300   -1.79222400    0.07635700
 H                  3.92731500    1.00751800   -0.27216000
 C                  1.40516500   -0.96771600   -1.91286600
 H                  0.70091400   -0.95878200   -2.74591200
 H                  1.71604800    0.07025300   -1.72989000
 H                  2.28944000   -1.52969200   -2.23493200
 C                  1.62571500    0.79285900    2.03188700
 H                  1.02214600    1.12196400    2.88057700
 H                  1.44157000   -0.27685000    1.87586000
 H                  2.68123100    0.94410700    2.26217300
 C                 -0.56894900   -1.68403000   -0.38771300
 C                 -1.00909800   -2.22925500    0.85677700
 C                 -1.57778000   -1.23761500   -1.29120100
 C                 -2.35958800   -2.32388000    1.16109400
 H                 -0.26649300   -2.57162400    1.56813000
 C                 -2.92306100   -1.34396100   -0.97272100
 H                 -1.29761700   -0.78844100   -2.23741300
 C                 -3.33454000   -1.88851500    0.25233500
 H                 -2.66117200   -2.74178200    2.11830600
 H                 -3.66530200   -0.98697400   -1.68156900
 H                 -4.38980000   -1.96455900    0.49559800
 C                 -0.14051800    1.78108600    0.41299600
 C                 -0.43272700    2.51604900   -0.74943500
 C                 -1.19829400    1.29391900    1.19851700
 C                 -1.75176900    2.77049200   -1.11020600
 H                  0.39076300    2.88203500   -1.35272500
 C                 -2.51849400    1.54769500    0.83386700
 H                 -1.00026500    0.69501000    2.07907200
 C                 -2.79763500    2.28960800   -0.31520000
 H                 -1.96826200    3.34207500   -2.00760800
 H                 -3.32815800    1.15003600    1.43603800
 H                 -3.82787400    2.48503400   -0.59753100

B 4 10 F
B 3 1 S 10 -0.200000
B 5 9 F

