%NProcShared=40
%chk=AABH_9.chk
#p opt=modredundant ub3lyp/6-31g(d,p) scrf=(iefpcm,solvent=acetonitrile)
guess=(mix,always) empiricaldispersion=gd3

Title Card Required

0 1
 C                  0.96648900   -1.51912500   -0.74177000
 H                  4.03090300   -0.43966700    1.20969800
 C                  1.15432200    1.40056100    0.81939700
 O                  2.08285300    1.83846700    0.08505600
 O                  1.85873600   -2.01372700    0.13892100
 N                  3.99061600    0.51939300   -0.43029300
 H                  4.02510300    0.36458300   -1.43627200
 N                  4.13801800   -0.65945400    0.21156000
 H                  2.77444900   -1.63693600   -0.00071100
 H                  3.13906000    1.24075400   -0.07792000
 C                  1.47033700   -0.84776900   -1.97961500
 H                  0.80859900   -1.02956700   -2.83057800
 H                  1.55583000    0.24109600   -1.85991600
 H                  2.45910600   -1.23535900   -2.23689100
 C                  1.48488800    0.62894200    2.06815100
 H                  0.86688800    0.94729100    2.91086400
 H                  1.30226600   -0.43814000    1.89930800
 H                  2.53512400    0.77320100    2.32405700
 C                 -0.41323300   -1.68128100   -0.42825400
 C                 -0.81918100   -2.30937900    0.78581500
 C                 -1.44074200   -1.20649600   -1.29494100
 C                 -2.16259900   -2.45019100    1.10128700
 H                 -0.05958200   -2.68214800    1.46284400
 C                 -2.77859300   -1.35948200   -0.96571200
 H                 -1.18041700   -0.69842800   -2.21654400
 C                 -3.15740200   -1.98178900    0.23203800
 H                 -2.44225000   -2.93350400    2.03343400
 H                 -3.53863500   -0.97830600   -1.64160400
 H                 -4.20652300   -2.08922700    0.48770400
 C                 -0.23425900    1.67676200    0.45043600
 C                 -0.50042200    2.41586200   -0.72253800
 C                 -1.31688900    1.21625900    1.22758800
 C                 -1.80872900    2.70249300   -1.09247100
 H                  0.33424400    2.75752900   -1.32405900
 C                 -2.62564200    1.51052400    0.85291600
 H                 -1.14382800    0.60313000    2.10396600
 C                 -2.87536100    2.25690700   -0.30150200
 H                 -2.00230500    3.27484500   -1.99436800
 H                 -3.45172500    1.14089100    1.45133200
 H                 -3.89735400    2.48366800   -0.58998400

B 4 10 F
B 3 1 S 10 -0.200000
B 5 9 F

