%NProcShared=40
%chk=AABH_1.chk
#p opt=modredundant ub3lyp/6-31g(d,p) scrf=(iefpcm,solvent=acetonitrile)
guess=(mix,always) empiricaldispersion=gd3

Title Card Required

0 1
 C                  0.74213300   -1.59875800   -0.66711300
 H                  4.10926600   -0.68931900    1.17752300
 C                  1.36188600    1.53157700    0.75261800
 O                  2.26284400    1.90231100   -0.00532200
 O                  1.58603800   -2.09302400    0.27604800
 N                  4.38005700   -0.04192000   -0.59261400
 H                  4.20559800   -0.24537100   -1.56985900
 N                  4.08011500   -1.06805400    0.22621600
 H                  2.53582200   -1.83582800    0.09783200
 H                  4.08482300    0.89475700   -0.31214500
 C                  1.35213300   -0.99633000   -1.89506400
 H                  0.64422800   -0.94413700   -2.72300100
 H                  1.71635900    0.02275400   -1.70475300
 H                  2.20526300   -1.59923400   -2.22832900
 C                  1.69513900    0.79158500    2.02860300
 H                  1.11126000    1.15146200    2.87883800
 H                  1.47683000   -0.27414900    1.89076000
 H                  2.75743400    0.91480200    2.24364100
 C                 -0.64629300   -1.66439900   -0.37748100
 C                 -1.10234000   -2.19030000    0.86973500
 C                 -1.64286300   -1.20777100   -1.28940500
 C                 -2.45552600   -2.25597700    1.16927600
 H                 -0.36941000   -2.53981900    1.58756800
 C                 -2.99123200   -1.28444100   -0.97536500
 H                 -1.35072100   -0.77386300   -2.23911000
 C                 -3.41830400   -1.80928700    0.25297800
 H                 -2.76894000   -2.65943400    2.12890900
 H                 -3.72352500   -0.92025400   -1.69093500
 H                 -4.47581300   -1.86248200    0.49256400
 C                 -0.06360000    1.78870200    0.40750300
 C                 -0.35115400    2.51807900   -0.75935500
 C                 -1.12431900    1.32427700    1.20267500
 C                 -1.66829600    2.78884400   -1.11563100
 H                  0.47465200    2.86683600   -1.36970900
 C                 -2.44266300    1.59357000    0.84235700
 H                 -0.93018200    0.73130300    2.08816500
 C                 -2.71694800    2.32944400   -0.31175200
 H                 -1.88107600    3.35600700   -2.01675600
 H                 -3.25493500    1.21197600    1.45135700
 H                 -3.74572300    2.53663000   -0.59103600

B 4 10 F
B 3 1 S 10 -0.200000
B 5 9 F

