%NProcShared=40
%chk=AABH_7.chk
#p opt=modredundant ub3lyp/6-31g(d,p) scrf=(iefpcm,solvent=acetonitrile)
guess=(mix,always) empiricaldispersion=gd3

Title Card Required

0 1
 C                  0.97867700   -1.54476900   -0.75468000
 H                  4.00306300   -0.40133800    1.21150700
 C                  1.12384900    1.46518100    0.83458000
 O                  2.05023000    1.88927500    0.11857600
 O                  1.87870600   -2.02502600    0.14126000
 N                  4.06769500    0.52833500   -0.44268500
 H                  4.12794100    0.38954000   -1.44638600
 N                  4.19443300   -0.63506300    0.23007700
 H                  2.79636800   -1.66063000   -0.01720800
 H                  3.30367900    1.21412100   -0.12556900
 C                  1.49128400   -0.87819200   -1.99535000
 H                  0.81904700   -1.03161300   -2.84269000
 H                  1.60953200    0.20596400   -1.86069900
 H                  2.46726000   -1.29012400   -2.26992700
 C                  1.43865500    0.67762600    2.08119400
 H                  0.79735400    0.95988800    2.91829500
 H                  1.28698500   -0.38929900    1.87887800
 H                  2.48083600    0.84194200    2.35793800
 C                 -0.39418900   -1.70493400   -0.42678100
 C                 -0.78392400   -2.30758000    0.80735200
 C                 -1.43806700   -1.26831800   -1.29427500
 C                 -2.12314800   -2.46628200    1.13561500
 H                 -0.01308500   -2.64821400    1.48908400
 C                 -2.77100400   -1.44035000   -0.95281600
 H                 -1.19462300   -0.77506700   -2.22861200
 C                 -3.13329200   -2.04203300    0.26084500
 H                 -2.38760200   -2.92810500    2.08344700
 H                 -3.54217200   -1.08964500   -1.63313900
 H                 -4.17917800   -2.16898300    0.52246100
 C                 -0.27991000    1.72004000    0.44827400
 C                 -0.53681000    2.48018400   -0.70825200
 C                 -1.36100300    1.21713500    1.19293700
 C                 -1.84421300    2.74329500   -1.10097500
 H                  0.30276200    2.85859700   -1.28056000
 C                 -2.66883800    1.48169600    0.79552100
 H                 -1.18925800    0.59705400    2.06407000
 C                 -2.91310700    2.24847400   -0.34547200
 H                 -2.03433300    3.33335600   -1.99210200
 H                 -3.49636200    1.07545200    1.36690600
 H                 -3.93436900    2.45317000   -0.65242000

B 4 10 F
B 3 1 S 10 -0.200000
B 5 9 F

