%NProcShared=40
%chk=AABH_4.chk
#p opt=modredundant ub3lyp/6-31g(d,p) scrf=(iefpcm,solvent=acetonitrile)
guess=(mix,always) empiricaldispersion=gd3

Title Card Required

0 1
 C                  0.94518200   -1.56440900   -0.71279400
 H                  4.05300000   -0.41902000    1.22261800
 C                  1.15675500    1.53806600    0.78060500
 O                  2.05469900    1.96159000    0.04067700
 O                  1.82669900   -2.03295300    0.20946200
 N                  4.23790900    0.38965600   -0.48679500
 H                  4.23392000    0.20044900   -1.48271800
 N                  4.20449300   -0.73407200    0.25833900
 H                  2.75432500   -1.69814500    0.04389100
 H                  3.62485000    1.17219500   -0.20493300
 C                  1.49349200   -0.91231900   -1.94501200
 H                  0.80720500   -0.99744300   -2.78965900
 H                  1.69240600    0.15668600   -1.78620900
 H                  2.43550000   -1.38855800   -2.23715500
 C                  1.50683600    0.78219300    2.04104800
 H                  0.88099800    1.07571000    2.88630800
 H                  1.36498500   -0.29107000    1.86682600
 H                  2.55282100    0.96759900    2.28908200
 C                 -0.43357400   -1.70776200   -0.40473200
 C                 -0.84618500   -2.28467100    0.83459800
 C                 -1.46227500   -1.28210800   -1.29577800
 C                 -2.19092400   -2.43010400    1.14513400
 H                 -0.08780900   -2.61330300    1.53581400
 C                 -2.80106700   -1.44002600   -0.97141600
 H                 -1.20274700   -0.80846700   -2.23592200
 C                 -3.18554700   -2.01665600    0.24766400
 H                 -2.47222200   -2.87185700    2.09773900
 H                 -3.55968200   -1.09793500   -1.67008200
 H                 -4.23601800   -2.13274600    0.49568800
 C                 -0.26811000    1.75387000    0.42215300
 C                 -0.56678300    2.49749300   -0.73364300
 C                 -1.32110900    1.23377200    1.19314300
 C                 -1.88803000    2.72901700   -1.10083300
 H                  0.25281700    2.88864200   -1.32622100
 C                 -2.64338400    1.46495400    0.82158500
 H                 -1.11710000    0.62603500    2.06616000
 C                 -2.92943000    2.21641300   -0.31962900
 H                 -2.10990400    3.30769300   -1.99226300
 H                 -3.44903900    1.04389000    1.41319800
 H                 -3.96138500    2.39512300   -0.60663000

B 4 10 F
B 3 1 S 10 -0.200000
B 5 9 F

