#p opt=modredundant rb3lyp/6-31g(d,p) scrf=(iefpcm,solvent=acetonitrile)
empiricaldispersion=gd3

Title Card Required

0 1
 C                  0.95155600    0.94249500    0.64931800
 O                  1.60666600    0.39226500    1.53268900
 C                  1.50967300    2.13986700   -0.08837300
 H                  1.59590900    1.90724900   -1.15310400
 H                  0.85315600    3.00959000    0.01779900
 H                  2.49623100    2.37530100    0.31197700
 C                 -0.42012100    0.45405600    0.30588700
 C                 -0.96102700   -0.60534200    1.05190300
 C                 -1.18138900    1.01798900   -0.72952900
 C                 -2.23189500   -1.09597400    0.76645200
 H                 -0.36841700   -1.02929900    1.85514000
 C                 -2.45450900    0.52577400   -1.01683200
 H                 -0.78449800    1.83654400   -1.31979100
 C                 -2.98147400   -0.53133000   -0.27079400
 H                 -2.64071900   -1.91574500    1.34939700
 H                 -3.03430600    0.96606100   -1.82221900
 H                 -3.97295600   -0.91323100   -0.49536000
 H                  1.84943500   -1.57767000    0.52633600
 N                  2.18371000   -0.92249100   -1.30742800
 H                  3.12353400   -0.52469600   -1.28476700
 H                  2.05761600   -1.31074600   -2.23860800
 N                  2.05121400   -2.01296000   -0.37244100
 H                  2.94231900   -2.49852900   -0.25742800

B 2 18 S 13 -0.100000

