%nprocshared=32
%chk=A2H-opt.chk
#p opt ub3lyp/6-31g(d,p) scrf=(iefpcm,solvent=acetonitrile)
empiricaldispersion=gd3

Title Card Required

0 1
 C                 -1.60081400   -0.04816800   -0.00007600
 C                 -2.54859500    1.10602600   -0.00011600
 H                 -2.03836800    2.06838500   -0.00113200
 H                 -3.20222900    1.07433700   -0.88325000
 H                 -3.20100400    1.07554400    0.88398800
 C                 -0.18525900   -0.00031400   -0.00004100
 C                  0.58376400   -1.20609900   -0.00007600
 C                  0.54037400    1.22975100    0.00005900
 C                  1.97031100   -1.17184400   -0.00007200
 H                  0.06607000   -2.15830000   -0.00013300
 C                  1.92747600    1.24368700    0.00007400
 H                  0.00746700    2.17436900    0.00021300
 C                  2.66220700    0.04843500   -0.00000100
 H                  2.52470100   -2.10680400   -0.00012400
 H                  2.44765800    2.19787200    0.00019300
 H                  3.74748500    0.06822500    0.00000800
 O                 -2.16500200   -1.29803100    0.00022500
 H                 -3.12855100   -1.21822100   -0.00006700
 N                 -2.13213525   -3.19150413    1.58272291
 H                 -1.79879615   -2.72010395    2.39921964
 N                 -1.66548460   -4.51144245    1.58272291
 H                 -1.99882181   -4.98284196    2.39922081
 H                 -1.99882560   -4.98284330    0.76622734

