%NProcShared=32
%chk=ABH.chk
#p opt=modredundant td=(nstates=12,root=04) ub3lyp/6-31g(d,p)
scrf=(iefpcm,solvent=acetonitrile) guess=(core,mix,always)
empiricaldispersion=gd3

Title Card Required

0 1
 C                  0.56832600    0.21081600   -0.40469500
 H                  5.00967911   -0.94119451   -0.41284824
 O                  1.25940400   -0.78587700   -0.61311500
 N                  3.92582611   -0.31677351    1.13448176
 H                  3.60789611    0.60990249    1.41149876
 N                  4.32498511   -0.20448651   -0.25599724
 H                  3.52063311   -0.43342151   -0.84250124
 H                  3.09633211   -0.90935251    1.19815676
 C                  1.18803600    1.59216400   -0.38607100
 H                  0.71512100    2.23599400   -1.13462700
 H                  1.03616600    2.06553900    0.58973800
 H                  2.25553600    1.52026500   -0.59244500
 C                 -0.89882200    0.07122000   -0.16117400
 C                 -1.46194400   -1.21650800   -0.17623900
 C                 -1.72781500    1.17836500    0.08347100
 C                 -2.82339400   -1.39441800    0.04775800
 H                 -0.81242300   -2.06418900   -0.36540000
 C                 -3.09244500    0.99861300    0.30822300
 H                 -1.31681700    2.18160100    0.10067300
 C                 -3.64159500   -0.28569800    0.29061600
 H                 -3.24972200   -2.39272700    0.03424200
 H                 -3.72611800    1.85949300    0.49672300
 H                 -4.70436400   -0.42335900    0.46572100

B 7 3 S 14 -0.100000

