%NProcShared=32
%chk=AH-A_10.chk
#p td=(50-50,nstates=36) ub3lyp/6-31g(d,p)
scrf=(iefpcm,solvent=acetonitrile) guess=(mix,always) 
empiricaldispersion=gd3

Title Card Required

0 2
 C                 -0.85134100   -1.38157400   -0.83304900
 C                  0.71296500   -1.24006100    0.84710600
 O                 -1.25788500   -2.50183800   -0.43796800
 C                  0.11563700   -1.34656000   -2.00703600
 H                 -0.48523900   -1.43319500   -2.92015700
 H                  0.71060600   -0.43747900   -2.07698300
 H                  0.78190300   -2.20705600   -1.94702400
 C                 -0.22656000   -1.18219100    2.02217800
 H                 -0.72857200   -0.22119000    2.12002100
 H                 -0.98900200   -1.95752500    1.92351100
 H                  0.34626900   -1.37297700    2.93855700
 C                 -1.64675300   -0.15142100   -0.52441400
 C                 -2.83907000   -0.29069800    0.20797300
 C                 -1.25817000    1.13267000   -0.94200200
 C                 -3.61604800    0.82020900    0.52236000
 H                 -3.13770300   -1.28560700    0.51852200
 C                 -2.03598200    2.24625100   -0.62510700
 H                 -0.34019300    1.27339400   -1.49920800
 C                 -3.21486700    2.09511000    0.10857300
 H                 -4.53527600    0.69564400    1.08708900
 H                 -1.71834700    3.23280600   -0.94887000
 H                 -3.81866200    2.96355400    0.35452500
 C                  1.61123300   -0.15075200    0.52736400
 C                  2.76252200   -0.37834100   -0.26709600
 C                  1.35376900    1.17299400    0.95839200
 C                  3.60932200    0.66807700   -0.61120500
 H                  2.97356400   -1.38582800   -0.60437800
 C                  2.20479100    2.21481400    0.60589000
 H                  0.47897400    1.38780400    1.55961000
 C                  3.33643300    1.97206200   -0.18007600
 H                  4.48753200    0.46981700   -1.21856700
 H                  1.98445800    3.22260700    0.94486900
 H                  3.99794200    2.78844100   -0.45303300
 O                  1.19264300   -2.48474700    0.56040700
 H                  0.40639200   -3.04406400    0.38289500

