%NProcShared=32
%chk=AH-A_14.chk
#p td=(50-50,nstates=36) ub3lyp/6-31g(d,p)
scrf=(iefpcm,solvent=acetonitrile) guess=(mix,always) 
empiricaldispersion=gd3

Title Card Required

0 2
 C                 -0.67061000   -1.34851400   -0.67452700
 C                  0.68997500   -1.29365500    0.65053900
 O                 -1.15206500   -2.51602000   -0.37241800
 C                  0.11545000   -1.31688200   -1.99719300
 H                 -0.60993500   -1.41975200   -2.81006900
 H                  0.68059400   -0.39814400   -2.14982000
 H                  0.80045300   -2.16415700   -2.02741300
 C                 -0.05606000   -1.34187200    1.97787300
 H                 -0.71402300   -0.48688500    2.12523100
 H                 -0.65978000   -2.24877100    2.02192900
 H                  0.68429600   -1.36009400    2.78378900
 C                 -1.58020900   -0.15642300   -0.42983000
 C                 -2.76221500   -0.34791300    0.30235100
 C                 -1.29697900    1.12783500   -0.91908400
 C                 -3.63232900    0.71232900    0.54802400
 H                 -2.98422300   -1.34407700    0.66829700
 C                 -2.16831300    2.19123300   -0.67596300
 H                 -0.38982600    1.31119700   -1.48236400
 C                 -3.33715000    1.98904200    0.06032500
 H                 -4.54260800    0.54351600    1.11619700
 H                 -1.93044700    3.17835900   -1.06134200
 H                 -4.01353300    2.81721300    0.25022600
 C                  1.55779300   -0.11136700    0.41657700
 C                  2.72225600   -0.22924100   -0.36798900
 C                  1.23995200    1.14762100    0.96097900
 C                  3.54255200    0.87264400   -0.59296300
 H                  2.97566600   -1.19378500   -0.78993800
 C                  2.06087400    2.24876600    0.73108100
 H                  0.34444700    1.27358500    1.55648800
 C                  3.21443700    2.11722700   -0.04678400
 H                  4.43888700    0.76159500   -1.19549900
 H                  1.79855400    3.21135600    1.15894900
 H                  3.85234500    2.97735300   -0.22594500
 O                  1.37109100   -2.46862400    0.38938800
 H                  0.68038800   -3.14633400    0.26503700

