%NProcShared=32
%chk=AH-A_5.chk
#p td=(50-50,nstates=36) ub3lyp/6-31g(d,p)
scrf=(iefpcm,solvent=acetonitrile) guess=(mix,always) 
empiricaldispersion=gd3

Title Card Required

0 2
 C                 -1.15220700   -1.44678000   -0.96330500
 C                  0.77654200   -1.28787400    1.06022600
 O                 -1.55385900   -2.47018700   -0.39412800
 C                 -0.16903500   -1.55213700   -2.10838600
 H                 -0.64996700   -1.21869100   -3.03472900
 H                  0.71098000   -0.92440400   -1.94992800
 H                  0.14461700   -2.59048600   -2.21353800
 C                 -0.23819100   -1.20270500    2.15493300
 H                 -0.62995800   -0.19448600    2.28577300
 H                 -1.08377200   -1.86004600    1.92790600
 H                  0.19572200   -1.53362900    3.10866200
 C                 -1.70367800   -0.11022100   -0.60473200
 C                 -2.79367200   -0.04440700    0.28110100
 C                 -1.16149700    1.08398100   -1.10870600
 C                 -3.32457300    1.18453000    0.65968000
 H                 -3.20831300   -0.97165600    0.66061100
 C                 -1.69071900    2.31490100   -0.72425900
 H                 -0.31365000    1.05949100   -1.78326100
 C                 -2.77153100    2.36872100    0.15938500
 H                 -4.16750400    1.22390200    1.34293100
 H                 -1.25555300    3.23176000   -1.10949400
 H                 -3.18227700    3.32875800    0.45737200
 C                  1.62791000   -0.23238300    0.62856200
 C                  2.66634000   -0.47633100   -0.31778800
 C                  1.45798800    1.10698800    1.08100600
 C                  3.46643700    0.55766200   -0.78448100
 H                  2.82182300   -1.48860000   -0.67184000
 C                  2.26581800    2.13010500    0.60435600
 H                  0.68116400    1.34106300    1.79944900
 C                  3.27600700    1.87070000   -0.33217800
 H                  4.24877700    0.34209100   -1.50699400
 H                  2.10718500    3.14328400    0.96283900
 H                  3.90315400    2.67611200   -0.70133200
 O                  1.08317500   -2.54346000    0.61724200
 H                  0.25139900   -3.04379500    0.52816500

