%NProcShared=32
%chk=AH-A_18.chk
#p td=(50-50,nstates=36) ub3lyp/6-31g(d,p)
scrf=(iefpcm,solvent=acetonitrile) guess=(mix,always) 
empiricaldispersion=gd3

Title Card Required

0 2
 C                 -0.55776300   -1.28121300   -0.45934000
 C                  0.57676200   -1.27400600    0.52188500
 O                 -1.21528100   -2.49363900   -0.35917900
 C                 -0.03793800   -1.36365200   -1.94738500
 H                 -0.88795000   -1.42723200   -2.62618400
 H                  0.53756700   -0.46116000   -2.15791700
 H                  0.60810900   -2.23198200   -2.06178100
 C                  0.02700600   -1.33047300    1.96546100
 H                 -0.58763300   -0.46759900    2.22498100
 H                 -0.59071700   -2.22773900    2.07293100
 H                  0.86452300   -1.39461700    2.66268600
 C                 -1.54436000   -0.10989100   -0.32040900
 C                 -2.74385400   -0.31347700    0.37641000
 C                 -1.29213800    1.15738600   -0.86305800
 C                 -3.66486700    0.72203400    0.53466400
 H                 -2.95334300   -1.29264100    0.79419900
 C                 -2.21200300    2.19547300   -0.70516700
 H                 -0.37270800    1.34866000   -1.40364800
 C                 -3.40123400    1.98273500   -0.00542400
 H                 -4.58682600    0.54350300    1.08015200
 H                 -1.99700500    3.17039300   -1.13240900
 H                 -4.11594100    2.79106200    0.11677500
 C                  1.54073900   -0.09689000    0.34127800
 C                  2.68810000   -0.24282900   -0.45297300
 C                  1.30647300    1.14565000    0.94818100
 C                  3.57008900    0.82236100   -0.64081300
 H                  2.88822100   -1.20155900   -0.91516400
 C                  2.18686900    2.21216300    0.76062100
 H                  0.42588200    1.29631700    1.56106700
 C                  3.32276900    2.05603400   -0.03578900
 H                  4.45257300    0.68522100   -1.25904100
 H                  1.98218200    3.16528300    1.23924900
 H                  4.00850500    2.88556100   -0.18062900
 O                  1.34663400   -2.46860700    0.31768900
 H                  0.68583900   -3.17193200    0.20780100

