%NProcShared=32
%chk=AH-A_2.chk
#p td=(50-50,nstates=36) ub3lyp/6-31g(d,p)
scrf=(iefpcm,solvent=acetonitrile) guess=(mix,always) 
empiricaldispersion=gd3

Title Card Required

0 2
 C                 -1.42401200   -1.42033700   -0.98807300
 C                  0.78728900   -1.32231400    1.18230500
 O                 -1.85716600   -2.36657600   -0.32457600
 C                 -0.51598800   -1.66789400   -2.17079700
 H                 -0.89570500   -1.17134100   -3.06896500
 H                  0.48192600   -1.26554800   -1.96677200
 H                 -0.43831700   -2.74146900   -2.34280600
 C                 -0.21936900   -1.15657600    2.27245100
 H                 -0.44496000   -0.11082400    2.47924100
 H                 -1.15852100   -1.64422300    1.98247000
 H                  0.12332600   -1.62920700    3.20317800
 C                 -1.76576700   -0.01680700   -0.62039900
 C                 -2.76217800    0.20518500    0.34579000
 C                 -1.09570000    1.08450400   -1.17814100
 C                 -3.08078300    1.49858800    0.74735900
 H                 -3.27352200   -0.65218700    0.76944100
 C                 -1.40844400    2.37922000   -0.76716500
 H                 -0.31117200    0.93605700   -1.91137200
 C                 -2.40131800    2.58907000    0.19301900
 H                 -3.85447600    1.66069700    1.49159700
 H                 -0.87331400    3.22293800   -1.19136800
 H                 -2.64470100    3.59869500    0.51020300
 C                  1.65260500   -0.32779100    0.65979200
 C                  2.55846500   -0.63652400   -0.40065100
 C                  1.63738800    1.01793500    1.13100200
 C                  3.37005600    0.34229400   -0.95679900
 H                  2.60224900   -1.65447900   -0.76990700
 C                  2.45652400    1.98340800    0.56425300
 H                  0.97091600    1.30112400    1.93772700
 C                  3.32957300    1.66224300   -0.48559900
 H                  4.04490900    0.07735500   -1.76631500
 H                  2.41518600    3.00185000    0.94061100
 H                  3.96578000    2.42409500   -0.92494400
 O                  0.92293600   -2.58557800    0.67170300
 H                  0.05418500   -3.02153400    0.68087700

