%NProcShared=32
%chk=AH-A_1.chk
#p td=(50-50,nstates=36) ub3lyp/6-31g(d,p)
scrf=(iefpcm,solvent=acetonitrile) guess=(mix,always)
empiricaldispersion=gd3

Title Card Required

0 2
 C                 -1.60827000   -1.34912300   -0.96226800
 C                  0.75021600   -1.38145300    1.20025400
 O                 -2.08599500   -2.23621900   -0.25110400
 C                 -0.79366500   -1.70439900   -2.18486700
 H                 -1.15377100   -1.17415700   -3.07148700
 H                  0.25097700   -1.41510200   -2.02622200
 H                 -0.84361200   -2.78119500   -2.34714300
 C                 -0.20688000   -1.17818000    2.32746800
 H                 -0.31518200   -0.12937600    2.60215200
 H                 -1.19949600   -1.54577000    2.03522700
 H                  0.10211900   -1.74117800    3.21867200
 C                 -1.78171800    0.08729800   -0.60130300
 C                 -2.68180000    0.42186600    0.42490800
 C                 -1.04204800    1.10682200   -1.22267400
 C                 -2.83765200    1.74567700    0.82357900
 H                 -3.24828600   -0.37311400    0.89721600
 C                 -1.19121100    2.43144500   -0.81502000
 H                 -0.32853800    0.86992500   -2.00364200
 C                 -2.08918300    2.75352200    0.20553900
 H                 -3.53779800    1.99530700    1.61491500
 H                 -0.60240500    3.21042700   -1.28894300
 H                 -2.20505900    3.78630300    0.52035000
 C                  1.64256800   -0.42823600    0.64912900
 C                  2.44795300   -0.75688300   -0.48428400
 C                  1.75588900    0.89659200    1.16474000
 C                  3.28348000    0.18586800   -1.06645300
 H                  2.39508100   -1.76089900   -0.88887100
 C                  2.59767700    1.82562700    0.57117000
 H                  1.17153500    1.19252100    2.02873900
 C                  3.36869400    1.48709300   -0.55084800
 H                  3.87844500   -0.09285100   -1.93211900
 H                  2.65504600    2.82931900    0.98346700
 H                  4.02316700    2.22075800   -1.01083800
 O                  0.76121400   -2.63091500    0.63713500
 H                 -0.12826300   -3.01506700    0.70586300

