%NProcShared=32
%chk=AH-A_4.chk
#p td=(50-50,nstates=36) ub3lyp/6-31g(d,p)
scrf=(iefpcm,solvent=acetonitrile) guess=(mix,always) 
empiricaldispersion=gd3

Title Card Required

0 2
 C                 -1.22576500   -1.44680100   -0.97949300
 C                  0.78608800   -1.29335600    1.10351000
 O                 -1.62868700   -2.45005000   -0.37944600
 C                 -0.25593400   -1.58660300   -2.13124800
 H                 -0.69888500   -1.18273500   -3.04778400
 H                  0.66731800   -1.03265300   -1.93985000
 H                 -0.01853800   -2.64113300   -2.27067400
 C                 -0.23589200   -1.18487500    2.18817400
 H                 -0.58883400   -0.16379700    2.33004500
 H                 -1.10540400   -1.80315400    1.93955000
 H                  0.16877700   -1.54864300    3.14284400
 C                 -1.72439500   -0.09117400   -0.61491100
 C                 -2.79167500    0.01487800    0.29411600
 C                 -1.14680500    1.08135100   -1.12993000
 C                 -3.26731500    1.26296700    0.68340300
 H                 -3.23270200   -0.89613600    0.68323000
 C                 -1.61929100    2.33129500   -0.73325100
 H                 -0.31372200    1.02459900   -1.82093500
 C                 -2.67921500    2.42532900    0.17206800
 H                 -4.09363700    1.33426100    1.38408600
 H                 -1.15632400    3.23123000   -1.12579100
 H                 -3.04629000    3.40013800    0.47896700
 C                  1.63824100   -0.25389600    0.64298700
 C                  2.64462100   -0.51713100   -0.33394600
 C                  1.50452500    1.09059100    1.09538000
 C                  3.44496000    0.50283500   -0.82977600
 H                  2.77527700   -1.53313600   -0.68746500
 C                  2.31263300    2.09872600    0.58923500
 H                  0.75494000    1.33963800    1.83753200
 C                  3.28907100    1.82070500   -0.37788600
 H                  4.20092400    0.27226900   -1.57546800
 H                  2.18099800    3.11560000    0.94838500
 H                  3.91645100    2.61496700   -0.77003900
 O                  1.04659800   -2.55305200    0.64039400
 H                  0.20324500   -3.03554100    0.57518700

