%NProcShared=32
%chk=AH-A_12.chk
#p td=(50-50,nstates=36) ub3lyp/6-31g(d,p)
scrf=(iefpcm,solvent=acetonitrile) guess=(mix,always) 
empiricaldispersion=gd3

Title Card Required

0 2
 C                 -0.76314200   -1.35997000   -0.75766200
 C                  0.69413500   -1.25574300    0.75080800
 O                 -1.19725600   -2.50466500   -0.41768400
 C                  0.13232200   -1.30865900   -1.99667900
 H                 -0.52375600   -1.41448400   -2.86789200
 H                  0.70085300   -0.38640100   -2.10550300
 H                  0.82172900   -2.15276500   -1.97632000
 C                 -0.16804800   -1.23444600    1.99473900
 H                 -0.72817600   -0.30835400    2.11005100
 H                 -0.87659900   -2.06309800    1.96348100
 H                  0.48763900   -1.35919600    2.86424400
 C                 -1.61984000   -0.15240300   -0.47784900
 C                 -2.81431800   -0.32865700    0.24093700
 C                 -1.28445700    1.13871300   -0.91666700
 C                 -3.64498300    0.75275400    0.52221700
 H                 -3.07314100   -1.32967600    0.56715200
 C                 -2.11631000    2.22318400   -0.63532300
 H                 -0.36692800    1.30885200   -1.46663700
 C                 -3.29705900    2.03554600    0.08636100
 H                 -4.56536000    0.59775000    1.07771000
 H                 -1.83930200    3.21545600   -0.97873800
 H                 -3.94286900    2.88076300    0.30517900
 C                  1.59186200   -0.13290500    0.47367800
 C                  2.75925500   -0.32622800   -0.29895000
 C                  1.30925700    1.16857300    0.94242900
 C                  3.60707100    0.73785700   -0.58590100
 H                  2.98703400   -1.32024200   -0.66370400
 C                  2.15935600    2.23033000    0.64833700
 H                  0.41707400    1.35436100    1.52722900
 C                  3.31108500    2.02246700   -0.11671200
 H                  4.50158700    0.56778800   -1.17742700
 H                  1.92214800    3.22379500    1.01632000
 H                  3.97185900    2.85310700   -0.34497700
 O                  1.25587900   -2.47671400    0.49063400
 H                  0.50012600   -3.07910000    0.32365700

