%NProcShared=32
%chk=AH-A_7.chk
#p td=(50-50,nstates=36) ub3lyp/6-31g(d,p)
scrf=(iefpcm,solvent=acetonitrile) guess=(mix,always) 
empiricaldispersion=gd3

Title Card Required

0 2
 C                 -1.00955800   -1.42948400   -0.92338800
 C                  0.75785600   -1.26688600    0.97656200
 O                 -1.40817500   -2.49678200   -0.42718500
 C                 -0.00811400   -1.46610100   -2.05959000
 H                 -0.55588900   -1.34239700   -3.00152400
 H                  0.74211700   -0.67705700   -2.00458200
 H                  0.48972100   -2.43539900   -2.06197900
 C                 -0.23952800   -1.20654600    2.09245500
 H                 -0.68715500   -0.22000900    2.20536400
 H                 -1.04629000   -1.92158100    1.90803900
 H                  0.24457900   -1.47994500    3.03987700
 C                 -1.67291000   -0.13928700   -0.58035800
 C                 -2.81561700   -0.16753000    0.23924300
 C                 -1.19887000    1.10076900   -1.04124900
 C                 -3.46217000    1.01139200    0.59632000
 H                 -3.17899800   -1.12898900    0.58436500
 C                 -1.84584900    2.28187700   -0.68043400
 H                 -0.31480400    1.15288300   -1.66519000
 C                 -2.97645400    2.24158000    0.13904000
 H                 -4.34413600    0.97569600    1.22873300
 H                 -1.46324500    3.23415300   -1.03458800
 H                 -3.47798600    3.16301200    0.41944100
 C                  1.61854200   -0.19043500    0.59475300
 C                  2.71432800   -0.41499600   -0.28484400
 C                  1.39183300    1.14197600    1.03423300
 C                  3.52424600    0.63370800   -0.69969600
 H                  2.90605700   -1.42337900   -0.63164600
 C                  2.20851800    2.18226300    0.60986000
 H                  0.56521000    1.35964100    1.69985800
 C                  3.28021400    1.94152900   -0.25923100
 H                  4.35432800    0.43434900   -1.37155800
 H                  2.00825200    3.19183500    0.95697600
 H                  3.91455600    2.75893400   -0.58763600
 O                  1.14673500   -2.51790500    0.59387300
 H                  0.33639000   -3.04723300    0.46048400

