%Chk=AH-NTO-State-12.chk
%OldChk=../AH.chk
#p geom=allcheck guess=(read,only) density=(check,transition=12) 
Pop=(Minimal,NTO,SaveNTO) ub3lyp/6-31g(d,p)
scrf=(iefpcm,solvent=acetonitrile) empiricaldispersion=gd3

