%NProcShared=32
%chk=Step03-scanCC-triplet.chk
#p opt=modredundant ub3lyp/6-31g(d,p) scrf=(iefpcm,solvent=acetonitrile)
empiricaldispersion=gd3

Title Card Required

0 3
 C                  0.74152900   -1.59120300   -0.65649000
 H                  4.09660700   -0.69612800    1.16481900
 C                  1.36357500    1.52590800    0.75192000
 O                  2.26497700    1.88947700   -0.01008000
 O                  1.58082500   -2.07615100    0.29745000
 N                  4.36348000   -0.03667600   -0.59906300
 H                  4.22090800   -0.24722100   -1.57993600
 N                  4.09946800   -1.07735900    0.21355500
 H                  2.53167200   -1.84560000    0.10228600
 H                  4.02250700    0.88666600   -0.32222500
 C                  1.35863700   -1.00072800   -1.88576100
 H                  0.65024600   -0.93918800   -2.71240500
 H                  1.74044800    0.01263500   -1.69828400
 H                  2.20208100   -1.61731800   -2.21905500
 C                  1.69639600    0.79554200    2.03323000
 H                  1.11871300    1.16913900    2.88185200
 H                  1.46868900   -0.26960400    1.90712100
 H                  2.76041600    0.91237200    2.24341000
 C                 -0.64807100   -1.66044400   -0.37436500
 C                 -1.10918100   -2.18389000    0.87196700
 C                 -1.64076200   -1.20634400   -1.29166000
 C                 -2.46374100   -2.25072500    1.16524700
 H                 -0.37948400   -2.53117200    1.59414600
 C                 -2.99041000   -1.28293200   -0.98329100
 H                 -1.34473600   -0.77414700   -2.24092600
 C                 -3.42257200   -1.80612400    0.24398300
 H                 -2.78113400   -2.65290900    2.12408300
 H                 -3.71973700   -0.92045800   -1.70272900
 H                 -4.48109700   -1.85941800    0.47899600
 C                 -0.06095300    1.78438200    0.40655100
 C                 -0.34835500    2.50742900   -0.76434600
 C                 -1.12179700    1.32730300    1.20604600
 C                 -1.66534000    2.77938400   -1.12023800
 H                  0.47731700    2.85050600   -1.37806700
 C                 -2.43991800    1.59756100    0.84585700
 H                 -0.92774500    0.73956200    2.09505700
 C                 -2.71399800    2.32735200   -0.31219800
 H                 -1.87797600    3.34177200   -2.02437700
 H                 -3.25233100    1.22185800    1.45834900
 H                 -3.74264500    2.53547800   -0.59122000

B 1 3 S 21 -0.100000

