%NProcShared=32
%chk=qst2.chk
#p opt=(calcfc,qst2) ub3lyp/6-31g(d,p) scrf=(iefpcm,solvent=acetonitrile)
nosymm guess=(mix,always) empiricaldispersion=gd3

Title Card Required

0 1
 C                  0.93283500   -0.83513200   -0.59580200
 H                  4.99395200   -0.61339200    1.25141600
 C                  0.93317800    0.83512200    0.59502000
 O                  1.83040600    1.41188500   -0.03577800
 O                  1.83030600   -1.41192700    0.03464300
 N                  4.81384300    0.68156300   -0.25074700
 H                  4.99489900    0.61325200   -1.25020200
 N                  4.81374100   -0.68171600    0.25180800
 H                  3.87513300   -1.07527500    0.15918100
 H                  3.87509400    1.07497400   -0.15888900
 C                  1.27152500   -0.24204600   -1.96360600
 H                  1.09563800   -1.04321500   -2.69006800
 H                  0.66193500    0.61357700   -2.24628200
 H                  2.32365900    0.03448600   -1.97500200
 C                  1.27236500    0.24203000    1.96269700
 H                  1.09650300    1.04310000    2.68927200
 H                  0.66300800   -0.61373200    2.24546800
 H                  2.32455200   -0.03431500    1.97380300
 C                 -0.48299200   -1.34765900   -0.41087200
 C                 -0.73413500   -2.27268300    0.61308900
 C                 -1.52097200   -1.00210600   -1.29018800
 C                 -2.00668100   -2.81288100    0.78074900
 H                  0.08189900   -2.57081100    1.26111100
 C                 -2.78939900   -1.55288200   -1.13079400
 H                 -1.35373500   -0.28046100   -2.08015600
 C                 -3.03960900   -2.44940500   -0.08778100
 H                 -2.19143800   -3.52249400    1.58122400
 H                 -3.58620400   -1.27418700   -1.81303500
 H                 -4.03317900   -2.86711200    0.04317700
 C                 -0.48275300    1.34767100    0.41064600
 C                 -0.73425900    2.27273600   -0.61317900
 C                 -1.52038500    1.00211500    1.29036200
 C                 -2.00686000    2.81298100   -0.78032000
 H                  0.08153400    2.57086200   -1.26150400
 C                 -2.78886400    1.55292100    1.13147400
 H                 -1.35286100    0.28042700    2.08023100
 C                 -3.03945700    2.44949300    0.08859400
 H                 -2.19190100    3.52262800   -1.58069900
 H                 -3.58541600    1.27421300    1.81400600
 H                 -4.03306800    2.86723500   -0.04194600

Title Card Required

0 1
 C                  0.77644300   -0.61789600   -0.48127000
 H                  5.49965700   -0.57888400   -0.94613000
 C                  0.72955900    0.63278800    0.59593100
 O                  1.87056100    1.45518600    0.35898200
 O                  1.91659100   -1.41276600   -0.15734900
 N                  4.57487800    0.41256000    0.40108900
 H                  5.52534500    0.73011000    0.66820600
 N                  4.56001000   -0.36573200   -0.56252100
 H                  2.71739800   -1.01934700   -0.55050700
 H                  2.67897000    0.97520200    0.61646500
 C                  0.93806000   -0.07433200   -1.90497300
 H                  1.02428500   -0.90989300   -2.60484300
 H                  0.10158400    0.55558600   -2.20973900
 H                  1.84361000    0.53461800   -1.95571800
 C                  0.80522500    0.08447000    2.02582300
 H                  0.80985400    0.91700200    2.73430200
 H                 -0.02665700   -0.57947000    2.26584100
 H                  1.72728900   -0.49003000    2.13837900
 C                 -0.44729700   -1.51832600   -0.33960700
 C                 -0.39003700   -2.66914200    0.46137300
 C                 -1.65981000   -1.22190400   -0.98040500
 C                 -1.50719600   -3.48997400    0.62423400
 H                  0.54183000   -2.91916000    0.95353000
 C                 -2.77761200   -2.04304400   -0.82301500
 H                 -1.74509500   -0.33630400   -1.59902200
 C                 -2.70832600   -3.18108900   -0.01760400
 H                 -1.43626800   -4.37458400    1.25113100
 H                 -3.70382200   -1.78906400   -1.33070500
 H                 -3.57782700   -3.82021600    0.10576400
 C                 -0.49400400    1.51534700    0.37303400
 C                 -0.41239700    2.63819700   -0.46508600
 C                 -1.73034600    1.22863800    0.97081300
 C                 -1.52950800    3.43903900   -0.70736600
 H                  0.53803000    2.88092800   -0.92428500
 C                 -2.84867300    2.02964500    0.73347500
 H                 -1.83368800    0.36533600    1.61754200
 C                 -2.75526000    3.13834300   -0.10945400
 H                 -1.43968900    4.30163500   -1.36189000
 H                 -3.79410400    1.78300200    1.20826700
 H                 -3.62506400    3.76181600   -0.29504800

