%NProcShared=32
%chk=AAH.chk
#p opt=modredundant td=(nstates=24,root=24) ub3lyp/6-31g(d,p)
scrf=(iefpcm,solvent=acetonitrile) guess=(core,mix,always)
empiricaldispersion=gd3

Title Card Required

0 1
 C                 -0.06092100   -1.87351200    0.64591700
 C                 -2.85858436    0.09457494   -0.47645259
 O                 -3.61349636   -0.13835606    0.46295641
 O                 -0.68654400   -2.51633800   -0.19388900
 C                 -0.59004900   -1.74530900    2.05864400
 H                  0.12901600   -2.14462100    2.78129600
 H                 -0.75885000   -0.69332200    2.30680700
 H                 -1.53158400   -2.28870900    2.13460200
 C                 -3.03685036   -0.60879806   -1.80506559
 H                 -3.13028036    0.11036394   -2.62484359
 H                 -2.16484036   -1.23942706   -2.00392059
 H                 -3.92981636   -1.23282806   -1.75917359
 C                  1.22381100   -1.19956600    0.28791800
 C                  1.72563600   -1.36192000   -1.01417300
 C                  1.92686700   -0.39485700    1.19652400
 C                  2.90393900   -0.73273700   -1.40071100
 H                  1.16987600   -1.98250600   -1.70864100
 C                  3.10692700    0.23909500    0.80759100
 H                  1.55394800   -0.24762900    2.20363800
 C                  3.59662600    0.07184500   -0.48896200
 H                  3.28387000   -0.86303700   -2.40944100
 H                  3.64044800    0.86639400    1.51483200
 H                  4.51470800    0.56743000   -0.79032600
 C                 -1.73211536    1.06807294   -0.32199559
 C                 -1.59828736    1.75043094    0.89921341
 C                 -0.79336136    1.29984594   -1.33907959
 C                 -0.54602636    2.63728094    1.10226441
 H                 -2.33071336    1.56485894    1.67752741
 C                  0.26161564    2.18832894   -1.13530559
 H                 -0.86727736    0.77527294   -2.28482159
 C                  0.38885564    2.85477394    0.08418141
 H                 -0.44833536    3.15601494    2.05101641
 H                  0.99405164    2.34452094   -1.92031259
 H                  1.21731564    3.53787894    0.24478841

B 1 2 S 23 -0.100000

